p cnf 558 1904
1 2 3 4 5 6 7 8 9 10 11 12 21 23 31 34 41 45 51 56 61 67 71 78 81 89 91 100 0
1 2 3 4 5 6 7 8 9 10 11 12 13 22 24 32 35 42 46 52 57 62 68 72 79 82 90 92 0
1 2 3 4 5 6 7 8 9 10 12 13 14 21 23 25 33 36 43 47 53 58 63 69 73 80 83 93 0
1 2 3 4 5 6 7 8 9 10 13 14 15 22 24 26 31 34 37 44 48 54 59 64 70 74 84 94 0
1 2 3 4 5 6 7 8 9 10 14 15 16 23 25 27 32 35 38 41 45 49 55 60 65 75 85 95 0
1 2 3 4 5 6 7 8 9 10 15 16 17 24 26 28 33 36 39 42 46 50 51 56 66 76 86 96 0
1 2 3 4 5 6 7 8 9 10 16 17 18 25 27 29 34 37 40 43 47 52 57 61 67 77 87 97 0
1 2 3 4 5 6 7 8 9 10 17 18 19 26 28 30 35 38 44 48 53 58 62 68 71 78 88 98 0
1 2 3 4 5 6 7 8 9 10 18 19 20 27 29 36 39 45 49 54 59 63 69 72 79 81 89 99 0
1 2 3 4 5 6 7 8 9 10 19 20 28 30 37 40 46 50 55 60 64 70 73 80 82 90 91 100 0
1 2 11 12 13 14 15 16 17 18 19 20 21 22 31 33 41 44 51 55 61 66 71 77 81 88 91 99 0
1 2 3 11 12 13 14 15 16 17 18 19 20 21 22 23 32 34 42 45 52 56 62 67 72 78 82 89 92 100 0
2 3 4 11 12 13 14 15 16 17 18 19 20 22 23 24 31 33 35 43 46 53 57 63 68 73 79 83 90 93 0
3 4 5 11 12 13 14 15 16 17 18 19 20 23 24 25 32 34 36 41 44 47 54 58 64 69 74 80 84 94 0
4 5 6 11 12 13 14 15 16 17 18 19 20 24 25 26 33 35 37 42 45 48 51 55 59 65 70 75 85 95 0
5 6 7 11 12 13 14 15 16 17 18 19 20 25 26 27 34 36 38 43 46 49 52 56 60 61 66 76 86 96 0
6 7 8 11 12 13 14 15 16 17 18 19 20 26 27 28 35 37 39 44 47 50 53 57 62 67 71 77 87 97 0
7 8 9 11 12 13 14 15 16 17 18 19 20 27 28 29 36 38 40 45 48 54 58 63 68 72 78 81 88 98 0
8 9 10 11 12 13 14 15 16 17 18 19 20 28 29 30 37 39 46 49 55 59 64 69 73 79 82 89 91 99 0
9 10 11 12 13 14 15 16 17 18 19 20 29 30 38 40 47 50 56 60 65 70 74 80 83 90 92 100 0
1 3 11 12 21 22 23 24 25 26 27 28 29 30 31 32 41 43 51 54 61 65 71 76 81 87 91 98 0
2 4 11 12 13 21 22 23 24 25 26 27 28 29 30 31 32 33 42 44 52 55 62 66 72 77 82 88 92 99 0
1 3 5 12 13 14 21 22 23 24 25 26 27 28 29 30 32 33 34 41 43 45 53 56 63 67 73 78 83 89 93 100 0
2 4 6 13 14 15 21 22 23 24 25 26 27 28 29 30 33 34 35 42 44 46 51 54 57 64 68 74 79 84 90 94 0
3 5 7 14 15 16 21 22 23 24 25 26 27 28 29 30 34 35 36 43 45 47 52 55 58 61 65 69 75 80 85 95 0
4 6 8 15 16 17 21 22 23 24 25 26 27 28 29 30 35 36 37 44 46 48 53 56 59 62 66 70 71 76 86 96 0
5 7 9 16 17 18 21 22 23 24 25 26 27 28 29 30 36 37 38 45 47 49 54 57 60 63 67 72 77 81 87 97 0
6 8 10 17 18 19 21 22 23 24 25 26 27 28 29 30 37 38 39 46 48 50 55 58 64 68 73 78 82 88 91 98 0
7 9 18 19 20 21 22 23 24 25 26 27 28 29 30 38 39 40 47 49 56 59 65 69 74 79 83 89 92 99 0
8 10 19 20 21 22 23 24 25 26 27 28 29 30 39 40 48 50 57 60 66 70 75 80 84 90 93 100 0
1 4 11 13 21 22 31 32 33 34 35 36 37 38 39 40 41 42 51 53 61 64 71 75 81 86 91 97 0
2 5 12 14 21 22 23 31 32 33 34 35 36 37 38 39 40 41 42 43 52 54 62 65 72 76 82 87 92 98 0
3 6 11 13 15 22 23 24 31 32 33 34 35 36 37 38 39 40 42 43 44 51 53 55 63 66 73 77 83 88 93 99 0
1 4 7 12 14 16 23 24 25 31 32 33 34 35 36 37 38 39 40 43 44 45 52 54 56 61 64 67 74 78 84 89 94 100 0
2 5 8 13 15 17 24 25 26 31 32 33 34 35 36 37 38 39 40 44 45 46 53 55 57 62 65 68 71 75 79 85 90 95 0
3 6 9 14 16 18 25 26 27 31 32 33 34 35 36 37 38 39 40 45 46 47 54 56 58 63 66 69 72 76 80 81 86 96 0
4 7 10 15 17 19 26 27 28 31 32 33 34 35 36 37 38 39 40 46 47 48 55 57 59 64 67 70 73 77 82 87 91 97 0
5 8 16 18 20 27 28 29 31 32 33 34 35 36 37 38 39 40 47 48 49 56 58 60 65 68 74 78 83 88 92 98 0
6 9 17 19 28 29 30 31 32 33 34 35 36 37 38 39 40 48 49 50 57 59 66 69 75 79 84 89 93 99 0
7 10 18 20 29 30 31 32 33 34 35 36 37 38 39 40 49 50 58 60 67 70 76 80 85 90 94 100 0
1 5 11 14 21 23 31 32 41 42 43 44 45 46 47 48 49 50 51 52 61 63 71 74 81 85 91 96 0
2 6 12 15 22 24 31 32 33 41 42 43 44 45 46 47 48 49 50 51 52 53 62 64 72 75 82 86 92 97 0
3 7 13 16 21 23 25 32 33 34 41 42 43 44 45 46 47 48 49 50 52 53 54 61 63 65 73 76 83 87 93 98 0
4 8 11 14 17 22 24 26 33 34 35 41 42 43 44 45 46 47 48 49 50 53 54 55 62 64 66 71 74 77 84 88 94 99 0
1 5 9 12 15 18 23 25 27 34 35 36 41 42 43 44 45 46 47 48 49 50 54 55 56 63 65 67 72 75 78 81 85 89 95 100 0
2 6 10 13 16 19 24 26 28 35 36 37 41 42 43 44 45 46 47 48 49 50 55 56 57 64 66 68 73 76 79 82 86 90 91 96 0
3 7 14 17 20 25 27 29 36 37 38 41 42 43 44 45 46 47 48 49 50 56 57 58 65 67 69 74 77 80 83 87 92 97 0
4 8 15 18 26 28 30 37 38 39 41 42 43 44 45 46 47 48 49 50 57 58 59 66 68 70 75 78 84 88 93 98 0
5 9 16 19 27 29 38 39 40 41 42 43 44 45 46 47 48 49 50 58 59 60 67 69 76 79 85 89 94 99 0
6 10 17 20 28 30 39 40 41 42 43 44 45 46 47 48 49 50 59 60 68 70 77 80 86 90 95 100 0
1 6 11 15 21 24 31 33 41 42 51 52 53 54 55 56 57 58 59 60 61 62 71 73 81 84 91 95 0
2 7 12 16 22 25 32 34 41 42 43 51 52 53 54 55 56 57 58 59 60 61 62 63 72 74 82 85 92 96 0
3 8 13 17 23 26 31 33 35 42 43 44 51 52 53 54 55 56 57 58 59 60 62 63 64 71 73 75 83 86 93 97 0
4 9 14 18 21 24 27 32 34 36 43 44 45 51 52 53 54 55 56 57 58 59 60 63 64 65 72 74 76 81 84 87 94 98 0
5 10 11 15 19 22 25 28 33 35 37 44 45 46 51 52 53 54 55 56 57 58 59 60 64 65 66 73 75 77 82 85 88 91 95 99 0
1 6 12 16 20 23 26 29 34 36 38 45 46 47 51 52 53 54 55 56 57 58 59 60 65 66 67 74 76 78 83 86 89 92 96 100 0
2 7 13 17 24 27 30 35 37 39 46 47 48 51 52 53 54 55 56 57 58 59 60 66 67 68 75 77 79 84 87 90 93 97 0
3 8 14 18 25 28 36 38 40 47 48 49 51 52 53 54 55 56 57 58 59 60 67 68 69 76 78 80 85 88 94 98 0
4 9 15 19 26 29 37 39 48 49 50 51 52 53 54 55 56 57 58 59 60 68 69 70 77 79 86 89 95 99 0
5 10 16 20 27 30 38 40 49 50 51 52 53 54 55 56 57 58 59 60 69 70 78 80 87 90 96 100 0
1 7 11 16 21 25 31 34 41 43 51 52 61 62 63 64 65 66 67 68 69 70 71 72 81 83 91 94 0
2 8 12 17 22 26 32 35 42 44 51 52 53 61 62 63 64 65 66 67 68 69 70 71 72 73 82 84 92 95 0
3 9 13 18 23 27 33 36 41 43 45 52 53 54 61 62 63 64 65 66 67 68 69 70 72 73 74 81 83 85 93 96 0
4 10 14 19 24 28 31 34 37 42 44 46 53 54 55 61 62 63 64 65 66 67 68 69 70 73 74 75 82 84 86 91 94 97 0
5 15 20 21 25 29 32 35 38 43 45 47 54 55 56 61 62 63 64 65 66 67 68 69 70 74 75 76 83 85 87 92 95 98 0
6 11 16 22 26 30 33 36 39 44 46 48 55 56 57 61 62 63 64 65 66 67 68 69 70 75 76 77 84 86 88 93 96 99 0
1 7 12 17 23 27 34 37 40 45 47 49 56 57 58 61 62 63 64 65 66 67 68 69 70 76 77 78 85 87 89 94 97 100 0
2 8 13 18 24 28 35 38 46 48 50 57 58 59 61 62 63 64 65 66 67 68 69 70 77 78 79 86 88 90 95 98 0
3 9 14 19 25 29 36 39 47 49 58 59 60 61 62 63 64 65 66 67 68 69 70 78 79 80 87 89 96 99 0
4 10 15 20 26 30 37 40 48 50 59 60 61 62 63 64 65 66 67 68 69 70 79 80 88 90 97 100 0
1 8 11 17 21 26 31 35 41 44 51 53 61 62 71 72 73 74 75 76 77 78 79 80 81 82 91 93 0
2 9 12 18 22 27 32 36 42 45 52 54 61 62 63 71 72 73 74 75 76 77 78 79 80 81 82 83 92 94 0
3 10 13 19 23 28 33 37 43 46 51 53 55 62 63 64 71 72 73 74 75 76 77 78 79 80 82 83 84 91 93 95 0
4 14 20 24 29 34 38 41 44 47 52 54 56 63 64 65 71 72 73 74 75 76 77 78 79 80 83 84 85 92 94 96 0
5 15 25 30 31 35 39 42 45 48 53 55 57 64 65 66 71 72 73 74 75 76 77 78 79 80 84 85 86 93 95 97 0
6 16 21 26 32 36 40 43 46 49 54 56 58 65 66 67 71 72 73 74 75 76 77 78 79 80 85 86 87 94 96 98 0
7 11 17 22 27 33 37 44 47 50 55 57 59 66 67 68 71 72 73 74 75 76 77 78 79 80 86 87 88 95 97 99 0
1 8 12 18 23 28 34 38 45 48 56 58 60 67 68 69 71 72 73 74 75 76 77 78 79 80 87 88 89 96 98 100 0
2 9 13 19 24 29 35 39 46 49 57 59 68 69 70 71 72 73 74 75 76 77 78 79 80 88 89 90 97 99 0
3 10 14 20 25 30 36 40 47 50 58 60 69 70 71 72 73 74 75 76 77 78 79 80 89 90 98 100 0
1 9 11 18 21 27 31 36 41 45 51 54 61 63 71 72 81 82 83 84 85 86 87 88 89 90 91 92 0
2 10 12 19 22 28 32 37 42 46 52 55 62 64 71 72 73 81 82 83 84 85 86 87 88 89 90 91 92 93 0
3 13 20 23 29 33 38 43 47 53 56 61 63 65 72 73 74 81 82 83 84 85 86 87 88 89 90 92 93 94 0
4 14 24 30 34 39 44 48 51 54 57 62 64 66 73 74 75 81 82 83 84 85 86 87 88 89 90 93 94 95 0
5 15 25 35 40 41 45 49 52 55 58 63 65 67 74 75 76 81 82 83 84 85 86 87 88 89 90 94 95 96 0
6 16 26 31 36 42 46 50 53 56 59 64 66 68 75 76 77 81 82 83 84 85 86 87 88 89 90 95 96 97 0
7 17 21 27 32 37 43 47 54 57 60 65 67 69 76 77 78 81 82 83 84 85 86 87 88 89 90 96 97 98 0
8 11 18 22 28 33 38 44 48 55 58 66 68 70 77 78 79 81 82 83 84 85 86 87 88 89 90 97 98 99 0
1 9 12 19 23 29 34 39 45 49 56 59 67 69 78 79 80 81 82 83 84 85 86 87 88 89 90 98 99 100 0
2 10 13 20 24 30 35 40 46 50 57 60 68 70 79 80 81 82 83 84 85 86 87 88 89 90 99 100 0
1 10 11 19 21 28 31 37 41 46 51 55 61 64 71 73 81 82 91 92 93 94 95 96 97 98 99 100 0
2 12 20 22 29 32 38 42 47 52 56 62 65 72 74 81 82 83 91 92 93 94 95 96 97 98 99 100 0
3 13 23 30 33 39 43 48 53 57 63 66 71 73 75 82 83 84 91 92 93 94 95 96 97 98 99 100 0
4 14 24 34 40 44 49 54 58 61 64 67 72 74 76 83 84 85 91 92 93 94 95 96 97 98 99 100 0
5 15 25 35 45 50 51 55 59 62 65 68 73 75 77 84 85 86 91 92 93 94 95 96 97 98 99 100 0
6 16 26 36 41 46 52 56 60 63 66 69 74 76 78 85 86 87 91 92 93 94 95 96 97 98 99 100 0
7 17 27 31 37 42 47 53 57 64 67 70 75 77 79 86 87 88 91 92 93 94 95 96 97 98 99 100 0
8 18 21 28 32 38 43 48 54 58 65 68 76 78 80 87 88 89 91 92 93 94 95 96 97 98 99 100 0
9 11 19 22 29 33 39 44 49 55 59 66 69 77 79 88 89 90 91 92 93 94 95 96 97 98 99 100 0
1 10 12 20 23 30 34 40 45 50 56 60 67 70 78 80 89 90 91 92 93 94 95 96 97 98 99 100 0
-139 111 148 0
-140 112 148 0
-141 113 148 0
-142 114 148 0
-143 115 148 0
-144 116 148 0
-145 117 148 0
-146 118 148 0
-147 119 148 0
-125 111 148 0
-126 112 148 0
-127 113 148 0
-128 114 148 0
-129 115 148 0
-130 116 148 0
-131 117 148 0
-132 118 148 0
-133 119 148 0
-125 -139 112 148 0
-125 -140 113 148 0
-125 -141 114 148 0
-125 -142 115 148 0
-125 -143 116 148 0
-125 -144 117 148 0
-125 -145 118 148 0
-125 -146 119 148 0
-125 -147 148 0
-126 -139 113 148 0
-126 -140 114 148 0
-126 -141 115 148 0
-126 -142 116 148 0
-126 -143 117 148 0
-126 -144 118 148 0
-126 -145 119 148 0
-126 -146 148 0
-126 -147 111 0
-127 -139 114 148 0
-127 -140 115 148 0
-127 -141 116 148 0
-127 -142 117 148 0
-127 -143 118 148 0
-127 -144 119 148 0
-127 -145 148 0
-127 -146 111 0
-127 -147 112 0
-128 -139 115 148 0
-128 -140 116 148 0
-128 -141 117 148 0
-128 -142 118 148 0
-128 -143 119 148 0
-128 -144 148 0
-128 -145 111 0
-128 -146 112 0
-128 -147 113 0
-129 -139 116 148 0
-129 -140 117 148 0
-129 -141 118 148 0
-129 -142 119 148 0
-129 -143 148 0
-129 -144 111 0
-129 -145 112 0
-129 -146 113 0
-129 -147 114 0
-130 -139 117 148 0
-130 -140 118 148 0
-130 -141 119 148 0
-130 -142 148 0
-130 -143 111 0
-130 -144 112 0
-130 -145 113 0
-130 -146 114 0
-130 -147 115 0
-131 -139 118 148 0
-131 -140 119 148 0
-131 -141 148 0
-131 -142 111 0
-131 -143 112 0
-131 -144 113 0
-131 -145 114 0
-131 -146 115 0
-131 -147 116 0
-132 -139 119 148 0
-132 -140 148 0
-132 -141 111 0
-132 -142 112 0
-132 -143 113 0
-132 -144 114 0
-132 -145 115 0
-132 -146 116 0
-132 -147 117 0
-133 -139 148 0
-133 -140 111 0
-133 -141 112 0
-133 -142 113 0
-133 -143 114 0
-133 -144 115 0
-133 -145 116 0
-133 -146 117 0
-133 -147 118 0
-148 101 0
-134 101 0
-148 -134 102 0
-135 102 0
-148 -135 103 0
-136 103 0
-148 -136 104 0
-137 104 0
-148 -137 105 0
-138 105 0
-148 -138 106 0
-120 101 0
-148 -120 102 0
-121 102 0
-148 -121 103 0
-122 103 0
-148 -122 104 0
-123 104 0
-148 -123 105 0
-124 105 0
-148 -124 106 0
-120 -134 102 0
-148 -120 -134 103 0
-120 -135 103 0
-148 -120 -135 104 0
-120 -136 104 0
-148 -120 -136 105 0
-120 -137 105 0
-148 -120 -137 106 0
-120 -138 106 0
-148 -120 -138 107 0
-121 -134 103 0
-148 -121 -134 104 0
-121 -135 104 0
-148 -121 -135 105 0
-121 -136 105 0
-148 -121 -136 106 0
-121 -137 106 0
-148 -121 -137 107 0
-121 -138 107 0
-148 -121 -138 108 0
-122 -134 104 0
-148 -122 -134 105 0
-122 -135 105 0
-148 -122 -135 106 0
-122 -136 106 0
-148 -122 -136 107 0
-122 -137 107 0
-148 -122 -137 108 0
-122 -138 108 0
-148 -122 -138 109 0
-123 -134 105 0
-148 -123 -134 106 0
-123 -135 106 0
-148 -123 -135 107 0
-123 -136 107 0
-148 -123 -136 108 0
-123 -137 108 0
-148 -123 -137 109 0
-123 -138 109 0
-148 -123 -138 110 0
-124 -134 106 0
-148 -124 -134 107 0
-124 -135 107 0
-148 -124 -135 108 0
-124 -136 108 0
-148 -124 -136 109 0
-124 -137 109 0
-148 -124 -137 110 0
-124 -138 110 0
-148 -124 -138 0
-162 139 171 0
-163 140 171 0
-164 141 171 0
-165 142 171 0
-166 143 171 0
-167 144 171 0
-168 145 171 0
-169 146 171 0
-170 147 171 0
-151 139 171 0
-152 140 171 0
-153 141 171 0
-154 142 171 0
-155 143 171 0
-156 144 171 0
-157 145 171 0
-158 146 171 0
-159 147 171 0
-151 -162 140 171 0
-151 -163 141 171 0
-151 -164 142 171 0
-151 -165 143 171 0
-151 -166 144 171 0
-151 -167 145 171 0
-151 -168 146 171 0
-151 -169 147 171 0
-151 -170 171 0
-152 -162 141 171 0
-152 -163 142 171 0
-152 -164 143 171 0
-152 -165 144 171 0
-152 -166 145 171 0
-152 -167 146 171 0
-152 -168 147 171 0
-152 -169 171 0
-152 -170 139 0
-153 -162 142 171 0
-153 -163 143 171 0
-153 -164 144 171 0
-153 -165 145 171 0
-153 -166 146 171 0
-153 -167 147 171 0
-153 -168 171 0
-153 -169 139 0
-153 -170 140 0
-154 -162 143 171 0
-154 -163 144 171 0
-154 -164 145 171 0
-154 -165 146 171 0
-154 -166 147 171 0
-154 -167 171 0
-154 -168 139 0
-154 -169 140 0
-154 -170 141 0
-155 -162 144 171 0
-155 -163 145 171 0
-155 -164 146 171 0
-155 -165 147 171 0
-155 -166 171 0
-155 -167 139 0
-155 -168 140 0
-155 -169 141 0
-155 -170 142 0
-156 -162 145 171 0
-156 -163 146 171 0
-156 -164 147 171 0
-156 -165 171 0
-156 -166 139 0
-156 -167 140 0
-156 -168 141 0
-156 -169 142 0
-156 -170 143 0
-157 -162 146 171 0
-157 -163 147 171 0
-157 -164 171 0
-157 -165 139 0
-157 -166 140 0
-157 -167 141 0
-157 -168 142 0
-157 -169 143 0
-157 -170 144 0
-158 -162 147 171 0
-158 -163 171 0
-158 -164 139 0
-158 -165 140 0
-158 -166 141 0
-158 -167 142 0
-158 -168 143 0
-158 -169 144 0
-158 -170 145 0
-159 -162 171 0
-159 -163 139 0
-159 -164 140 0
-159 -165 141 0
-159 -166 142 0
-159 -167 143 0
-159 -168 144 0
-159 -169 145 0
-159 -170 146 0
-171 134 0
-160 134 0
-171 -160 135 0
-161 135 0
-171 -161 136 0
-149 134 0
-171 -149 135 0
-150 135 0
-171 -150 136 0
-149 -160 135 0
-171 -149 -160 136 0
-149 -161 136 0
-171 -149 -161 137 0
-150 -160 136 0
-171 -150 -160 137 0
-150 -161 137 0
-171 -150 -161 138 0
-183 162 192 0
-184 163 192 0
-185 164 192 0
-186 165 192 0
-187 166 192 0
-188 167 192 0
-189 168 192 0
-190 169 192 0
-191 170 192 0
-173 162 192 0
-174 163 192 0
-175 164 192 0
-176 165 192 0
-177 166 192 0
-178 167 192 0
-179 168 192 0
-180 169 192 0
-181 170 192 0
-173 -183 163 192 0
-173 -184 164 192 0
-173 -185 165 192 0
-173 -186 166 192 0
-173 -187 167 192 0
-173 -188 168 192 0
-173 -189 169 192 0
-173 -190 170 192 0
-173 -191 192 0
-174 -183 164 192 0
-174 -184 165 192 0
-174 -185 166 192 0
-174 -186 167 192 0
-174 -187 168 192 0
-174 -188 169 192 0
-174 -189 170 192 0
-174 -190 192 0
-174 -191 162 0
-175 -183 165 192 0
-175 -184 166 192 0
-175 -185 167 192 0
-175 -186 168 192 0
-175 -187 169 192 0
-175 -188 170 192 0
-175 -189 192 0
-175 -190 162 0
-175 -191 163 0
-176 -183 166 192 0
-176 -184 167 192 0
-176 -185 168 192 0
-176 -186 169 192 0
-176 -187 170 192 0
-176 -188 192 0
-176 -189 162 0
-176 -190 163 0
-176 -191 164 0
-177 -183 167 192 0
-177 -184 168 192 0
-177 -185 169 192 0
-177 -186 170 192 0
-177 -187 192 0
-177 -188 162 0
-177 -189 163 0
-177 -190 164 0
-177 -191 165 0
-178 -183 168 192 0
-178 -184 169 192 0
-178 -185 170 192 0
-178 -186 192 0
-178 -187 162 0
-178 -188 163 0
-178 -189 164 0
-178 -190 165 0
-178 -191 166 0
-179 -183 169 192 0
-179 -184 170 192 0
-179 -185 192 0
-179 -186 162 0
-179 -187 163 0
-179 -188 164 0
-179 -189 165 0
-179 -190 166 0
-179 -191 167 0
-180 -183 170 192 0
-180 -184 192 0
-180 -185 162 0
-180 -186 163 0
-180 -187 164 0
-180 -188 165 0
-180 -189 166 0
-180 -190 167 0
-180 -191 168 0
-181 -183 192 0
-181 -184 162 0
-181 -185 163 0
-181 -186 164 0
-181 -187 165 0
-181 -188 166 0
-181 -189 167 0
-181 -190 168 0
-181 -191 169 0
-192 160 0
-182 160 0
-192 -182 161 0
-172 160 0
-192 -172 161 0
-172 -182 161 0
-192 -172 -182 0
-202 193 0
-203 194 0
-204 195 0
-199 193 0
-200 194 0
-201 195 0
-199 -202 194 0
-199 -203 195 0
-199 -204 196 0
-200 -202 195 0
-200 -203 196 0
-200 -204 197 0
-201 -202 196 0
-201 -203 197 0
-201 -204 198 0
-84 202 0
-205 202 0
-206 203 0
-205 -84 203 0
-206 -84 204 0
-94 205 0
-95 205 0
-95 -94 206 0
-85 199 0
-207 199 0
-208 200 0
-207 -85 200 0
-208 -85 201 0
-86 207 0
-96 207 0
-96 -86 208 0
-218 209 0
-219 210 0
-220 211 0
-215 209 0
-216 210 0
-217 211 0
-215 -218 210 0
-215 -219 211 0
-215 -220 212 0
-216 -218 211 0
-216 -219 212 0
-216 -220 213 0
-217 -218 212 0
-217 -219 213 0
-217 -220 214 0
-91 218 0
-221 218 0
-222 219 0
-221 -91 219 0
-222 -91 220 0
-81 221 0
-82 221 0
-82 -81 222 0
-92 215 0
-223 215 0
-224 216 0
-223 -92 216 0
-224 -92 217 0
-93 223 0
-83 223 0
-83 -93 224 0
-209 183 225 0
-210 184 225 0
-211 185 225 0
-212 186 225 0
-213 187 225 0
-214 188 225 0
-193 183 225 0
-194 184 225 0
-195 185 225 0
-196 186 225 0
-197 187 225 0
-198 188 225 0
-193 -209 184 225 0
-193 -210 185 225 0
-193 -211 186 225 0
-193 -212 187 225 0
-193 -213 188 225 0
-193 -214 189 225 0
-194 -209 185 225 0
-194 -210 186 225 0
-194 -211 187 225 0
-194 -212 188 225 0
-194 -213 189 225 0
-194 -214 190 225 0
-195 -209 186 225 0
-195 -210 187 225 0
-195 -211 188 225 0
-195 -212 189 225 0
-195 -213 190 225 0
-195 -214 191 225 0
-196 -209 187 225 0
-196 -210 188 225 0
-196 -211 189 225 0
-196 -212 190 225 0
-196 -213 191 225 0
-196 -214 225 0
-197 -209 188 225 0
-197 -210 189 225 0
-197 -211 190 225 0
-197 -212 191 225 0
-197 -213 225 0
-197 -214 183 0
-198 -209 189 225 0
-198 -210 190 225 0
-198 -211 191 225 0
-198 -212 225 0
-198 -213 183 0
-198 -214 184 0
-225 182 0
-237 226 0
-238 227 0
-239 228 0
-233 226 0
-234 227 0
-235 228 0
-236 229 0
-233 -237 227 0
-233 -238 228 0
-233 -239 229 0
-234 -237 228 0
-234 -238 229 0
-234 -239 230 0
-235 -237 229 0
-235 -238 230 0
-235 -239 231 0
-236 -237 230 0
-236 -238 231 0
-236 -239 232 0
-90 237 0
-240 237 0
-241 238 0
-240 -90 238 0
-241 -90 239 0
-89 240 0
-79 240 0
-79 -89 241 0
-244 233 0
-245 234 0
-242 233 0
-243 234 0
-242 -244 234 0
-242 -245 235 0
-243 -244 235 0
-243 -245 236 0
-80 244 0
-70 244 0
-70 -80 245 0
-69 242 0
-59 242 0
-59 -69 243 0
-255 246 0
-256 247 0
-257 248 0
-252 246 0
-253 247 0
-254 248 0
-252 -255 247 0
-252 -256 248 0
-252 -257 249 0
-253 -255 248 0
-253 -256 249 0
-253 -257 250 0
-254 -255 249 0
-254 -256 250 0
-254 -257 251 0
-97 255 0
-258 255 0
-259 256 0
-258 -97 256 0
-259 -97 257 0
-87 258 0
-88 258 0
-88 -87 259 0
-98 252 0
-260 252 0
-261 253 0
-260 -98 253 0
-261 -98 254 0
-99 260 0
-100 260 0
-100 -99 261 0
-246 173 262 0
-247 174 262 0
-248 175 262 0
-249 176 262 0
-250 177 262 0
-251 178 262 0
-226 173 262 0
-227 174 262 0
-228 175 262 0
-229 176 262 0
-230 177 262 0
-231 178 262 0
-232 179 262 0
-226 -246 174 262 0
-226 -247 175 262 0
-226 -248 176 262 0
-226 -249 177 262 0
-226 -250 178 262 0
-226 -251 179 262 0
-227 -246 175 262 0
-227 -247 176 262 0
-227 -248 177 262 0
-227 -249 178 262 0
-227 -250 179 262 0
-227 -251 180 262 0
-228 -246 176 262 0
-228 -247 177 262 0
-228 -248 178 262 0
-228 -249 179 262 0
-228 -250 180 262 0
-228 -251 181 262 0
-229 -246 177 262 0
-229 -247 178 262 0
-229 -248 179 262 0
-229 -249 180 262 0
-229 -250 181 262 0
-229 -251 262 0
-230 -246 178 262 0
-230 -247 179 262 0
-230 -248 180 262 0
-230 -249 181 262 0
-230 -250 262 0
-230 -251 173 0
-231 -246 179 262 0
-231 -247 180 262 0
-231 -248 181 262 0
-231 -249 262 0
-231 -250 173 0
-231 -251 174 0
-232 -246 180 262 0
-232 -247 181 262 0
-232 -248 262 0
-232 -249 173 0
-232 -250 174 0
-232 -251 175 0
-262 172 0
-274 151 283 0
-275 152 283 0
-276 153 283 0
-277 154 283 0
-278 155 283 0
-279 156 283 0
-280 157 283 0
-281 158 283 0
-282 159 283 0
-264 151 283 0
-265 152 283 0
-266 153 283 0
-267 154 283 0
-268 155 283 0
-269 156 283 0
-270 157 283 0
-271 158 283 0
-272 159 283 0
-264 -274 152 283 0
-264 -275 153 283 0
-264 -276 154 283 0
-264 -277 155 283 0
-264 -278 156 283 0
-264 -279 157 283 0
-264 -280 158 283 0
-264 -281 159 283 0
-264 -282 283 0
-265 -274 153 283 0
-265 -275 154 283 0
-265 -276 155 283 0
-265 -277 156 283 0
-265 -278 157 283 0
-265 -279 158 283 0
-265 -280 159 283 0
-265 -281 283 0
-265 -282 151 0
-266 -274 154 283 0
-266 -275 155 283 0
-266 -276 156 283 0
-266 -277 157 283 0
-266 -278 158 283 0
-266 -279 159 283 0
-266 -280 283 0
-266 -281 151 0
-266 -282 152 0
-267 -274 155 283 0
-267 -275 156 283 0
-267 -276 157 283 0
-267 -277 158 283 0
-267 -278 159 283 0
-267 -279 283 0
-267 -280 151 0
-267 -281 152 0
-267 -282 153 0
-268 -274 156 283 0
-268 -275 157 283 0
-268 -276 158 283 0
-268 -277 159 283 0
-268 -278 283 0
-268 -279 151 0
-268 -280 152 0
-268 -281 153 0
-268 -282 154 0
-269 -274 157 283 0
-269 -275 158 283 0
-269 -276 159 283 0
-269 -277 283 0
-269 -278 151 0
-269 -279 152 0
-269 -280 153 0
-269 -281 154 0
-269 -282 155 0
-270 -274 158 283 0
-270 -275 159 283 0
-270 -276 283 0
-270 -277 151 0
-270 -278 152 0
-270 -279 153 0
-270 -280 154 0
-270 -281 155 0
-270 -282 156 0
-271 -274 159 283 0
-271 -275 283 0
-271 -276 151 0
-271 -277 152 0
-271 -278 153 0
-271 -279 154 0
-271 -280 155 0
-271 -281 156 0
-271 -282 157 0
-272 -274 283 0
-272 -275 151 0
-272 -276 152 0
-272 -277 153 0
-272 -278 154 0
-272 -279 155 0
-272 -280 156 0
-272 -281 157 0
-272 -282 158 0
-283 149 0
-273 149 0
-283 -273 150 0
-263 149 0
-283 -263 150 0
-263 -273 150 0
-283 -263 -273 0
-293 284 0
-294 285 0
-295 286 0
-290 284 0
-291 285 0
-292 286 0
-290 -293 285 0
-290 -294 286 0
-290 -295 287 0
-291 -293 286 0
-291 -294 287 0
-291 -295 288 0
-292 -293 287 0
-292 -294 288 0
-292 -295 289 0
-29 293 0
-296 293 0
-297 294 0
-296 -29 294 0
-297 -29 295 0
-19 296 0
-20 296 0
-20 -19 297 0
-10 290 0
-298 290 0
-299 291 0
-298 -10 291 0
-299 -10 292 0
-9 298 0
-8 298 0
-8 -9 299 0
-309 300 0
-310 301 0
-311 302 0
-306 300 0
-307 301 0
-308 302 0
-306 -309 301 0
-306 -310 302 0
-306 -311 303 0
-307 -309 302 0
-307 -310 303 0
-307 -311 304 0
-308 -309 303 0
-308 -310 304 0
-308 -311 305 0
-49 309 0
-312 309 0
-313 310 0
-312 -49 310 0
-313 -49 311 0
-50 312 0
-60 312 0
-60 -50 313 0
-30 306 0
-314 306 0
-315 307 0
-314 -30 307 0
-315 -30 308 0
-40 314 0
-39 314 0
-39 -40 315 0
-300 274 316 0
-301 275 316 0
-302 276 316 0
-303 277 316 0
-304 278 316 0
-305 279 316 0
-284 274 316 0
-285 275 316 0
-286 276 316 0
-287 277 316 0
-288 278 316 0
-289 279 316 0
-284 -300 275 316 0
-284 -301 276 316 0
-284 -302 277 316 0
-284 -303 278 316 0
-284 -304 279 316 0
-284 -305 280 316 0
-285 -300 276 316 0
-285 -301 277 316 0
-285 -302 278 316 0
-285 -303 279 316 0
-285 -304 280 316 0
-285 -305 281 316 0
-286 -300 277 316 0
-286 -301 278 316 0
-286 -302 279 316 0
-286 -303 280 316 0
-286 -304 281 316 0
-286 -305 282 316 0
-287 -300 278 316 0
-287 -301 279 316 0
-287 -302 280 316 0
-287 -303 281 316 0
-287 -304 282 316 0
-287 -305 316 0
-288 -300 279 316 0
-288 -301 280 316 0
-288 -302 281 316 0
-288 -303 282 316 0
-288 -304 316 0
-288 -305 274 0
-289 -300 280 316 0
-289 -301 281 316 0
-289 -302 282 316 0
-289 -303 316 0
-289 -304 274 0
-289 -305 275 0
-316 273 0
-328 317 0
-329 318 0
-330 319 0
-324 317 0
-325 318 0
-326 319 0
-327 320 0
-324 -328 318 0
-324 -329 319 0
-324 -330 320 0
-325 -328 319 0
-325 -329 320 0
-325 -330 321 0
-326 -328 320 0
-326 -329 321 0
-326 -330 322 0
-327 -328 321 0
-327 -329 322 0
-327 -330 323 0
-16 328 0
-331 328 0
-332 329 0
-331 -16 329 0
-332 -16 330 0
-26 331 0
-25 331 0
-25 -26 332 0
-335 324 0
-336 325 0
-333 324 0
-334 325 0
-333 -335 325 0
-333 -336 326 0
-334 -335 326 0
-334 -336 327 0
-35 335 0
-36 335 0
-36 -35 336 0
-37 333 0
-27 333 0
-27 -37 334 0
-346 337 0
-347 338 0
-348 339 0
-343 337 0
-344 338 0
-345 339 0
-343 -346 338 0
-343 -347 339 0
-343 -348 340 0
-344 -346 339 0
-344 -347 340 0
-344 -348 341 0
-345 -346 340 0
-345 -347 341 0
-345 -348 342 0
-18 346 0
-349 346 0
-350 347 0
-349 -18 347 0
-350 -18 348 0
-17 349 0
-7 349 0
-7 -17 350 0
-6 343 0
-351 343 0
-352 344 0
-351 -6 344 0
-352 -6 345 0
-5 351 0
-15 351 0
-15 -5 352 0
-337 264 353 0
-338 265 353 0
-339 266 353 0
-340 267 353 0
-341 268 353 0
-342 269 353 0
-317 264 353 0
-318 265 353 0
-319 266 353 0
-320 267 353 0
-321 268 353 0
-322 269 353 0
-323 270 353 0
-317 -337 265 353 0
-317 -338 266 353 0
-317 -339 267 353 0
-317 -340 268 353 0
-317 -341 269 353 0
-317 -342 270 353 0
-318 -337 266 353 0
-318 -338 267 353 0
-318 -339 268 353 0
-318 -340 269 353 0
-318 -341 270 353 0
-318 -342 271 353 0
-319 -337 267 353 0
-319 -338 268 353 0
-319 -339 269 353 0
-319 -340 270 353 0
-319 -341 271 353 0
-319 -342 272 353 0
-320 -337 268 353 0
-320 -338 269 353 0
-320 -339 270 353 0
-320 -340 271 353 0
-320 -341 272 353 0
-320 -342 353 0
-321 -337 269 353 0
-321 -338 270 353 0
-321 -339 271 353 0
-321 -340 272 353 0
-321 -341 353 0
-321 -342 264 0
-322 -337 270 353 0
-322 -338 271 353 0
-322 -339 272 353 0
-322 -340 353 0
-322 -341 264 0
-322 -342 265 0
-323 -337 271 353 0
-323 -338 272 353 0
-323 -339 353 0
-323 -340 264 0
-323 -341 265 0
-323 -342 266 0
-353 263 0
-367 125 376 0
-368 126 376 0
-369 127 376 0
-370 128 376 0
-371 129 376 0
-372 130 376 0
-373 131 376 0
-374 132 376 0
-375 133 376 0
-356 125 376 0
-357 126 376 0
-358 127 376 0
-359 128 376 0
-360 129 376 0
-361 130 376 0
-362 131 376 0
-363 132 376 0
-364 133 376 0
-356 -367 126 376 0
-356 -368 127 376 0
-356 -369 128 376 0
-356 -370 129 376 0
-356 -371 130 376 0
-356 -372 131 376 0
-356 -373 132 376 0
-356 -374 133 376 0
-356 -375 376 0
-357 -367 127 376 0
-357 -368 128 376 0
-357 -369 129 376 0
-357 -370 130 376 0
-357 -371 131 376 0
-357 -372 132 376 0
-357 -373 133 376 0
-357 -374 376 0
-357 -375 125 0
-358 -367 128 376 0
-358 -368 129 376 0
-358 -369 130 376 0
-358 -370 131 376 0
-358 -371 132 376 0
-358 -372 133 376 0
-358 -373 376 0
-358 -374 125 0
-358 -375 126 0
-359 -367 129 376 0
-359 -368 130 376 0
-359 -369 131 376 0
-359 -370 132 376 0
-359 -371 133 376 0
-359 -372 376 0
-359 -373 125 0
-359 -374 126 0
-359 -375 127 0
-360 -367 130 376 0
-360 -368 131 376 0
-360 -369 132 376 0
-360 -370 133 376 0
-360 -371 376 0
-360 -372 125 0
-360 -373 126 0
-360 -374 127 0
-360 -375 128 0
-361 -367 131 376 0
-361 -368 132 376 0
-361 -369 133 376 0
-361 -370 376 0
-361 -371 125 0
-361 -372 126 0
-361 -373 127 0
-361 -374 128 0
-361 -375 129 0
-362 -367 132 376 0
-362 -368 133 376 0
-362 -369 376 0
-362 -370 125 0
-362 -371 126 0
-362 -372 127 0
-362 -373 128 0
-362 -374 129 0
-362 -375 130 0
-363 -367 133 376 0
-363 -368 376 0
-363 -369 125 0
-363 -370 126 0
-363 -371 127 0
-363 -372 128 0
-363 -373 129 0
-363 -374 130 0
-363 -375 131 0
-364 -367 376 0
-364 -368 125 0
-364 -369 126 0
-364 -370 127 0
-364 -371 128 0
-364 -372 129 0
-364 -373 130 0
-364 -374 131 0
-364 -375 132 0
-376 120 0
-365 120 0
-376 -365 121 0
-366 121 0
-376 -366 122 0
-354 120 0
-376 -354 121 0
-355 121 0
-376 -355 122 0
-354 -365 121 0
-376 -354 -365 122 0
-354 -366 122 0
-376 -354 -366 123 0
-355 -365 122 0
-376 -355 -365 123 0
-355 -366 123 0
-376 -355 -366 124 0
-388 367 397 0
-389 368 397 0
-390 369 397 0
-391 370 397 0
-392 371 397 0
-393 372 397 0
-394 373 397 0
-395 374 397 0
-396 375 397 0
-378 367 397 0
-379 368 397 0
-380 369 397 0
-381 370 397 0
-382 371 397 0
-383 372 397 0
-384 373 397 0
-385 374 397 0
-386 375 397 0
-378 -388 368 397 0
-378 -389 369 397 0
-378 -390 370 397 0
-378 -391 371 397 0
-378 -392 372 397 0
-378 -393 373 397 0
-378 -394 374 397 0
-378 -395 375 397 0
-378 -396 397 0
-379 -388 369 397 0
-379 -389 370 397 0
-379 -390 371 397 0
-379 -391 372 397 0
-379 -392 373 397 0
-379 -393 374 397 0
-379 -394 375 397 0
-379 -395 397 0
-379 -396 367 0
-380 -388 370 397 0
-380 -389 371 397 0
-380 -390 372 397 0
-380 -391 373 397 0
-380 -392 374 397 0
-380 -393 375 397 0
-380 -394 397 0
-380 -395 367 0
-380 -396 368 0
-381 -388 371 397 0
-381 -389 372 397 0
-381 -390 373 397 0
-381 -391 374 397 0
-381 -392 375 397 0
-381 -393 397 0
-381 -394 367 0
-381 -395 368 0
-381 -396 369 0
-382 -388 372 397 0
-382 -389 373 397 0
-382 -390 374 397 0
-382 -391 375 397 0
-382 -392 397 0
-382 -393 367 0
-382 -394 368 0
-382 -395 369 0
-382 -396 370 0
-383 -388 373 397 0
-383 -389 374 397 0
-383 -390 375 397 0
-383 -391 397 0
-383 -392 367 0
-383 -393 368 0
-383 -394 369 0
-383 -395 370 0
-383 -396 371 0
-384 -388 374 397 0
-384 -389 375 397 0
-384 -390 397 0
-384 -391 367 0
-384 -392 368 0
-384 -393 369 0
-384 -394 370 0
-384 -395 371 0
-384 -396 372 0
-385 -388 375 397 0
-385 -389 397 0
-385 -390 367 0
-385 -391 368 0
-385 -392 369 0
-385 -393 370 0
-385 -394 371 0
-385 -395 372 0
-385 -396 373 0
-386 -388 397 0
-386 -389 367 0
-386 -390 368 0
-386 -391 369 0
-386 -392 370 0
-386 -393 371 0
-386 -394 372 0
-386 -395 373 0
-386 -396 374 0
-397 365 0
-387 365 0
-397 -387 366 0
-377 365 0
-397 -377 366 0
-377 -387 366 0
-397 -377 -387 0
-407 398 0
-408 399 0
-409 400 0
-404 398 0
-405 399 0
-406 400 0
-404 -407 399 0
-404 -408 400 0
-404 -409 401 0
-405 -407 400 0
-405 -408 401 0
-405 -409 402 0
-406 -407 401 0
-406 -408 402 0
-406 -409 403 0
-68 407 0
-410 407 0
-411 408 0
-410 -68 408 0
-411 -68 409 0
-78 410 0
-77 410 0
-77 -78 411 0
-67 404 0
-412 404 0
-413 405 0
-412 -67 405 0
-413 -67 406 0
-66 412 0
-76 412 0
-76 -66 413 0
-423 414 0
-424 415 0
-425 416 0
-420 414 0
-421 415 0
-422 416 0
-420 -423 415 0
-420 -424 416 0
-420 -425 417 0
-421 -423 416 0
-421 -424 417 0
-421 -425 418 0
-422 -423 417 0
-422 -424 418 0
-422 -425 419 0
-28 423 0
-426 423 0
-427 424 0
-426 -28 424 0
-427 -28 425 0
-38 426 0
-48 426 0
-48 -38 427 0
-47 420 0
-428 420 0
-429 421 0
-428 -47 421 0
-429 -47 422 0
-57 428 0
-58 428 0
-58 -57 429 0
-414 388 430 0
-415 389 430 0
-416 390 430 0
-417 391 430 0
-418 392 430 0
-419 393 430 0
-398 388 430 0
-399 389 430 0
-400 390 430 0
-401 391 430 0
-402 392 430 0
-403 393 430 0
-398 -414 389 430 0
-398 -415 390 430 0
-398 -416 391 430 0
-398 -417 392 430 0
-398 -418 393 430 0
-398 -419 394 430 0
-399 -414 390 430 0
-399 -415 391 430 0
-399 -416 392 430 0
-399 -417 393 430 0
-399 -418 394 430 0
-399 -419 395 430 0
-400 -414 391 430 0
-400 -415 392 430 0
-400 -416 393 430 0
-400 -417 394 430 0
-400 -418 395 430 0
-400 -419 396 430 0
-401 -414 392 430 0
-401 -415 393 430 0
-401 -416 394 430 0
-401 -417 395 430 0
-401 -418 396 430 0
-401 -419 430 0
-402 -414 393 430 0
-402 -415 394 430 0
-402 -416 395 430 0
-402 -417 396 430 0
-402 -418 430 0
-402 -419 388 0
-403 -414 394 430 0
-403 -415 395 430 0
-403 -416 396 430 0
-403 -417 430 0
-403 -418 388 0
-403 -419 389 0
-430 387 0
-442 431 0
-443 432 0
-444 433 0
-438 431 0
-439 432 0
-440 433 0
-441 434 0
-438 -442 432 0
-438 -443 433 0
-438 -444 434 0
-439 -442 433 0
-439 -443 434 0
-439 -444 435 0
-440 -442 434 0
-440 -443 435 0
-440 -444 436 0
-441 -442 435 0
-441 -443 436 0
-441 -444 437 0
-44 442 0
-445 442 0
-446 443 0
-445 -44 443 0
-446 -44 444 0
-43 445 0
-53 445 0
-53 -43 446 0
-449 438 0
-450 439 0
-447 438 0
-448 439 0
-447 -449 439 0
-447 -450 440 0
-448 -449 440 0
-448 -450 441 0
-54 449 0
-64 449 0
-64 -54 450 0
-74 447 0
-73 447 0
-73 -74 448 0
-460 451 0
-461 452 0
-462 453 0
-457 451 0
-458 452 0
-459 453 0
-457 -460 452 0
-457 -461 453 0
-457 -462 454 0
-458 -460 453 0
-458 -461 454 0
-458 -462 455 0
-459 -460 454 0
-459 -461 455 0
-459 -462 456 0
-75 460 0
-463 460 0
-464 461 0
-463 -75 461 0
-464 -75 462 0
-65 463 0
-55 463 0
-55 -65 464 0
-56 457 0
-465 457 0
-466 458 0
-465 -56 458 0
-466 -56 459 0
-46 465 0
-45 465 0
-45 -46 466 0
-451 378 467 0
-452 379 467 0
-453 380 467 0
-454 381 467 0
-455 382 467 0
-456 383 467 0
-431 378 467 0
-432 379 467 0
-433 380 467 0
-434 381 467 0
-435 382 467 0
-436 383 467 0
-437 384 467 0
-431 -451 379 467 0
-431 -452 380 467 0
-431 -453 381 467 0
-431 -454 382 467 0
-431 -455 383 467 0
-431 -456 384 467 0
-432 -451 380 467 0
-432 -452 381 467 0
-432 -453 382 467 0
-432 -454 383 467 0
-432 -455 384 467 0
-432 -456 385 467 0
-433 -451 381 467 0
-433 -452 382 467 0
-433 -453 383 467 0
-433 -454 384 467 0
-433 -455 385 467 0
-433 -456 386 467 0
-434 -451 382 467 0
-434 -452 383 467 0
-434 -453 384 467 0
-434 -454 385 467 0
-434 -455 386 467 0
-434 -456 467 0
-435 -451 383 467 0
-435 -452 384 467 0
-435 -453 385 467 0
-435 -454 386 467 0
-435 -455 467 0
-435 -456 378 0
-436 -451 384 467 0
-436 -452 385 467 0
-436 -453 386 467 0
-436 -454 467 0
-436 -455 378 0
-436 -456 379 0
-437 -451 385 467 0
-437 -452 386 467 0
-437 -453 467 0
-437 -454 378 0
-437 -455 379 0
-437 -456 380 0
-467 377 0
-479 356 488 0
-480 357 488 0
-481 358 488 0
-482 359 488 0
-483 360 488 0
-484 361 488 0
-485 362 488 0
-486 363 488 0
-487 364 488 0
-469 356 488 0
-470 357 488 0
-471 358 488 0
-472 359 488 0
-473 360 488 0
-474 361 488 0
-475 362 488 0
-476 363 488 0
-477 364 488 0
-469 -479 357 488 0
-469 -480 358 488 0
-469 -481 359 488 0
-469 -482 360 488 0
-469 -483 361 488 0
-469 -484 362 488 0
-469 -485 363 488 0
-469 -486 364 488 0
-469 -487 488 0
-470 -479 358 488 0
-470 -480 359 488 0
-470 -481 360 488 0
-470 -482 361 488 0
-470 -483 362 488 0
-470 -484 363 488 0
-470 -485 364 488 0
-470 -486 488 0
-470 -487 356 0
-471 -479 359 488 0
-471 -480 360 488 0
-471 -481 361 488 0
-471 -482 362 488 0
-471 -483 363 488 0
-471 -484 364 488 0
-471 -485 488 0
-471 -486 356 0
-471 -487 357 0
-472 -479 360 488 0
-472 -480 361 488 0
-472 -481 362 488 0
-472 -482 363 488 0
-472 -483 364 488 0
-472 -484 488 0
-472 -485 356 0
-472 -486 357 0
-472 -487 358 0
-473 -479 361 488 0
-473 -480 362 488 0
-473 -481 363 488 0
-473 -482 364 488 0
-473 -483 488 0
-473 -484 356 0
-473 -485 357 0
-473 -486 358 0
-473 -487 359 0
-474 -479 362 488 0
-474 -480 363 488 0
-474 -481 364 488 0
-474 -482 488 0
-474 -483 356 0
-474 -484 357 0
-474 -485 358 0
-474 -486 359 0
-474 -487 360 0
-475 -479 363 488 0
-475 -480 364 488 0
-475 -481 488 0
-475 -482 356 0
-475 -483 357 0
-475 -484 358 0
-475 -485 359 0
-475 -486 360 0
-475 -487 361 0
-476 -479 364 488 0
-476 -480 488 0
-476 -481 356 0
-476 -482 357 0
-476 -483 358 0
-476 -484 359 0
-476 -485 360 0
-476 -486 361 0
-476 -487 362 0
-477 -479 488 0
-477 -480 356 0
-477 -481 357 0
-477 -482 358 0
-477 -483 359 0
-477 -484 360 0
-477 -485 361 0
-477 -486 362 0
-477 -487 363 0
-488 354 0
-478 354 0
-488 -478 355 0
-468 354 0
-488 -468 355 0
-468 -478 355 0
-488 -468 -478 0
-498 489 0
-499 490 0
-500 491 0
-495 489 0
-496 490 0
-497 491 0
-495 -498 490 0
-495 -499 491 0
-495 -500 492 0
-496 -498 491 0
-496 -499 492 0
-496 -500 493 0
-497 -498 492 0
-497 -499 493 0
-497 -500 494 0
-52 498 0
-501 498 0
-502 499 0
-501 -52 499 0
-502 -52 500 0
-42 501 0
-41 501 0
-41 -42 502 0
-31 495 0
-503 495 0
-504 496 0
-503 -31 496 0
-504 -31 497 0
-21 503 0
-22 503 0
-22 -21 504 0
-514 505 0
-515 506 0
-516 507 0
-511 505 0
-512 506 0
-513 507 0
-511 -514 506 0
-511 -515 507 0
-511 -516 508 0
-512 -514 507 0
-512 -515 508 0
-512 -516 509 0
-513 -514 508 0
-513 -515 509 0
-513 -516 510 0
-63 514 0
-517 514 0
-518 515 0
-517 -63 515 0
-518 -63 516 0
-62 517 0
-72 517 0
-72 -62 518 0
-71 511 0
-519 511 0
-520 512 0
-519 -71 512 0
-520 -71 513 0
-61 519 0
-51 519 0
-51 -61 520 0
-505 479 521 0
-506 480 521 0
-507 481 521 0
-508 482 521 0
-509 483 521 0
-510 484 521 0
-489 479 521 0
-490 480 521 0
-491 481 521 0
-492 482 521 0
-493 483 521 0
-494 484 521 0
-489 -505 480 521 0
-489 -506 481 521 0
-489 -507 482 521 0
-489 -508 483 521 0
-489 -509 484 521 0
-489 -510 485 521 0
-490 -505 481 521 0
-490 -506 482 521 0
-490 -507 483 521 0
-490 -508 484 521 0
-490 -509 485 521 0
-490 -510 486 521 0
-491 -505 482 521 0
-491 -506 483 521 0
-491 -507 484 521 0
-491 -508 485 521 0
-491 -509 486 521 0
-491 -510 487 521 0
-492 -505 483 521 0
-492 -506 484 521 0
-492 -507 485 521 0
-492 -508 486 521 0
-492 -509 487 521 0
-492 -510 521 0
-493 -505 484 521 0
-493 -506 485 521 0
-493 -507 486 521 0
-493 -508 487 521 0
-493 -509 521 0
-493 -510 479 0
-494 -505 485 521 0
-494 -506 486 521 0
-494 -507 487 521 0
-494 -508 521 0
-494 -509 479 0
-494 -510 480 0
-521 478 0
-533 522 0
-534 523 0
-535 524 0
-529 522 0
-530 523 0
-531 524 0
-532 525 0
-529 -533 523 0
-529 -534 524 0
-529 -535 525 0
-530 -533 524 0
-530 -534 525 0
-530 -535 526 0
-531 -533 525 0
-531 -534 526 0
-531 -535 527 0
-532 -533 526 0
-532 -534 527 0
-532 -535 528 0
-14 533 0
-536 533 0
-537 534 0
-536 -14 534 0
-537 -14 535 0
-4 536 0
-3 536 0
-3 -4 537 0
-540 529 0
-541 530 0
-538 529 0
-539 530 0
-538 -540 530 0
-538 -541 531 0
-539 -540 531 0
-539 -541 532 0
-2 540 0
-12 540 0
-12 -2 541 0
-11 538 0
-1 538 0
-1 -11 539 0
-551 542 0
-552 543 0
-553 544 0
-548 542 0
-549 543 0
-550 544 0
-548 -551 543 0
-548 -552 544 0
-548 -553 545 0
-549 -551 544 0
-549 -552 545 0
-549 -553 546 0
-550 -551 545 0
-550 -552 546 0
-550 -553 547 0
-32 551 0
-554 551 0
-555 552 0
-554 -32 552 0
-555 -32 553 0
-33 554 0
-34 554 0
-34 -33 555 0
-24 548 0
-556 548 0
-557 549 0
-556 -24 549 0
-557 -24 550 0
-23 556 0
-13 556 0
-13 -23 557 0
-542 469 558 0
-543 470 558 0
-544 471 558 0
-545 472 558 0
-546 473 558 0
-547 474 558 0
-522 469 558 0
-523 470 558 0
-524 471 558 0
-525 472 558 0
-526 473 558 0
-527 474 558 0
-528 475 558 0
-522 -542 470 558 0
-522 -543 471 558 0
-522 -544 472 558 0
-522 -545 473 558 0
-522 -546 474 558 0
-522 -547 475 558 0
-523 -542 471 558 0
-523 -543 472 558 0
-523 -544 473 558 0
-523 -545 474 558 0
-523 -546 475 558 0
-523 -547 476 558 0
-524 -542 472 558 0
-524 -543 473 558 0
-524 -544 474 558 0
-524 -545 475 558 0
-524 -546 476 558 0
-524 -547 477 558 0
-525 -542 473 558 0
-525 -543 474 558 0
-525 -544 475 558 0
-525 -545 476 558 0
-525 -546 477 558 0
-525 -547 558 0
-526 -542 474 558 0
-526 -543 475 558 0
-526 -544 476 558 0
-526 -545 477 558 0
-526 -546 558 0
-526 -547 469 0
-527 -542 475 558 0
-527 -543 476 558 0
-527 -544 477 558 0
-527 -545 558 0
-527 -546 469 0
-527 -547 470 0
-528 -542 476 558 0
-528 -543 477 558 0
-528 -544 558 0
-528 -545 469 0
-528 -546 470 0
-528 -547 471 0
-558 468 0
-101 0
-102 0
-103 0
-104 0
-105 0
-106 0
-107 0
-108 0
-109 0
-110 0
-116 0
-117 0
-118 0
-119 0
-45 -21 -7 -69 -83 0
-45 -61 -3 -29 -87 0
-56 -72 -14 -40 -98 0
-56 -18 -32 -80 -94 0
-4 -62 -30 -88 -46 0
-8 -22 -70 -84 -46 0
-31 -93 -17 -79 -55 0
-71 -97 -55 -13 -39 0
